molecule {
  1 2
  O 
  H 1 0.96
  H 1 0.96 2 104.5
}

set basis cc-pvdz
set reference uhf
set scf_type pk
set df_scf_guess false
energy('scf')


from h2o_alt import water_mp2_script

scfwfn = psi4.wavefunction()
mints  = psi4.MintsHelper()

water_mp2_script(scfwfn, mints)


energy('cepa0')
