molecule {
  1 2
  O 
  H 1 0.96
  H 1 0.96 2 104.5
}

set basis sto-3g
set reference uhf
set scf_type pk
set df_scf_guess false
energy('scf')


from h2o import water_mp2_script

scfwfn = psi4.wavefunction()
mints  = psi4.MintsHelper()

water_mp2_script(scfwfn, mints)


set mp2_type conv
energy('mp2')
